NAME          
ROWS
 N  OBJ
 L  c2
 L  c3
 L  c4
 L  c5
 L  c6
 G  c1
COLUMNS
    ss[1]     c1        1
    ss[1]     OBJ       1000
    s[1]      c2        1
    s[1]      OBJ       -1000
    s[2]      c3        1
    s[2]      OBJ       -1000
    s[3]      c4        1
    s[3]      OBJ       -1000
    s[4]      c5        1
    s[4]      OBJ       -1000
    s[5]      c6        1
    s[5]      OBJ       -1000
    MARKER    'MARKER'                 'INTORG'
    x[1]      c2        898
    x[1]      c3        703
    x[1]      c4        963
    x[1]      c5        399
    x[1]      c6        602
    x[1]      c1        556
    x[1]      OBJ       -514
    x[2]      c2        137
    x[2]      c3        58
    x[2]      c4        713
    x[2]      c5        635
    x[2]      c6        456
    x[2]      c1        125
    x[2]      OBJ       -590
    x[3]      c2        865
    x[3]      c3        931
    x[3]      c4        946
    x[3]      c5        464
    x[3]      c6        541
    x[3]      c1        736
    x[3]      OBJ       -280
    x[4]      c2        892
    x[4]      c3        130
    x[4]      c4        429
    x[4]      c5        149
    x[4]      c6        474
    x[4]      c1        557
    x[4]      OBJ       -58
    x[5]      c2        976
    x[5]      c3        191
    x[5]      c4        12
    x[5]      c5        36
    x[5]      c6        309
    x[5]      c1        301
    x[5]      OBJ       -65
    x[6]      c2        857
    x[6]      c3        4
    x[6]      c4        560
    x[6]      c5        900
    x[6]      c6        123
    x[6]      c1        6
    x[6]      OBJ       -914
    x[7]      c2        353
    x[7]      c3        65
    x[7]      c4        317
    x[7]      c5        772
    x[7]      c6        233
    x[7]      c1        111
    x[7]      OBJ       -243
    x[8]      c2        15
    x[8]      c3        501
    x[8]      c4        138
    x[8]      c5        836
    x[8]      c6        358
    x[8]      c1        16
    x[8]      OBJ       -590
    x[9]      c2        11
    x[9]      c3        240
    x[9]      c4        373
    x[9]      c5        188
    x[9]      c6        760
    x[9]      c1        704
    x[9]      OBJ       -135
    x[10]     c2        215
    x[10]     c3        353
    x[10]     c4        871
    x[10]     c5        347
    x[10]     c6        843
    x[10]     c1        952
    x[10]     OBJ       -125
    x[11]     c2        98
    x[11]     c3        211
    x[11]     c4        834
    x[11]     c5        808
    x[11]     c6        213
    x[11]     c1        408
    x[11]     OBJ       -278
    x[12]     c2        834
    x[12]     c3        598
    x[12]     c4        80
    x[12]     c5        864
    x[12]     c6        696
    x[12]     c1        492
    x[12]     OBJ       -288
    x[13]     c2        43
    x[13]     c3        683
    x[13]     c4        296
    x[13]     c5        667
    x[13]     c6        772
    x[13]     c1        163
    x[13]     OBJ       -668
    x[14]     c2        374
    x[14]     c3        241
    x[14]     c4        102
    x[14]     c5        71
    x[14]     c6        742
    x[14]     c1        938
    x[14]     OBJ       179
    x[15]     c2        17
    x[15]     c3        112
    x[15]     c4        535
    x[15]     c5        451
    x[15]     c6        760
    x[15]     c1        315
    x[15]     OBJ       -501
    x[16]     c2        371
    x[16]     c3        439
    x[16]     c4        999
    x[16]     c5        307
    x[16]     c6        664
    x[16]     c1        949
    x[16]     OBJ       -91
    x[17]     c2        903
    x[17]     c3        593
    x[17]     c4        929
    x[17]     c5        326
    x[17]     c6        740
    x[17]     c1        670
    x[17]     OBJ       -121
    x[18]     c2        227
    x[18]     c3        450
    x[18]     c4        136
    x[18]     c5        298
    x[18]     c6        108
    x[18]     c1        1000
    x[18]     OBJ       309
    x[19]     c2        661
    x[19]     c3        740
    x[19]     c4        951
    x[19]     c5        289
    x[19]     c6        998
    x[19]     c1        457
    x[19]     OBJ       -689
    x[20]     c2        296
    x[20]     c3        723
    x[20]     c4        951
    x[20]     c5        789
    x[20]     c6        482
    x[20]     c1        816
    x[20]     OBJ       -176
    x[21]     c2        519
    x[21]     c3        387
    x[21]     c4        770
    x[21]     c5        424
    x[21]     c6        770
    x[21]     c1        357
    x[21]     OBJ       -574
    x[22]     c2        721
    x[22]     c3        245
    x[22]     c4        109
    x[22]     c5        338
    x[22]     c6        403
    x[22]     c1        495
    x[22]     OBJ       -317
    x[23]     c2        111
    x[23]     c3        896
    x[23]     c4        198
    x[23]     c5        434
    x[23]     c6        465
    x[23]     c1        916
    x[23]     OBJ       284
    x[24]     c2        142
    x[24]     c3        28
    x[24]     c4        758
    x[24]     c5        206
    x[24]     c6        99
    x[24]     c1        852
    x[24]     OBJ       227
    x[25]     c2        513
    x[25]     c3        282
    x[25]     c4        78
    x[25]     c5        224
    x[25]     c6        784
    x[25]     c1        614
    x[25]     OBJ       -141
    x[26]     c2        328
    x[26]     c3        785
    x[26]     c4        220
    x[26]     c5        29
    x[26]     c6        85
    x[26]     c1        161
    x[26]     OBJ       -392
    x[27]     c2        983
    x[27]     c3        975
    x[27]     c4        569
    x[27]     c5        456
    x[27]     c6        679
    x[27]     c1        60
    x[27]     OBJ       -1065
    x[28]     c2        89
    x[28]     c3        906
    x[28]     c4        890
    x[28]     c5        603
    x[28]     c6        147
    x[28]     c1        382
    x[28]     OBJ       -517
    x[29]     c2        893
    x[29]     c3        350
    x[29]     c4        759
    x[29]     c5        975
    x[29]     c6        310
    x[29]     c1        373
    x[29]     OBJ       -598
    x[30]     c2        733
    x[30]     c3        712
    x[30]     c4        365
    x[30]     c5        938
    x[30]     c6        939
    x[30]     c1        570
    x[30]     OBJ       -492
    x[31]     c2        933
    x[31]     c3        268
    x[31]     c4        153
    x[31]     c5        734
    x[31]     c6        438
    x[31]     c1        182
    x[31]     OBJ       -454
    x[32]     c2        642
    x[32]     c3        908
    x[32]     c4        205
    x[32]     c5        417
    x[32]     c6        352
    x[32]     c1        934
    x[32]     OBJ       -80
    x[33]     c2        519
    x[33]     c3        951
    x[33]     c4        941
    x[33]     c5        2
    x[33]     c6        185
    x[33]     c1        129
    x[33]     OBJ       -484
    x[34]     c2        728
    x[34]     c3        908
    x[34]     c4        360
    x[34]     c5        671
    x[34]     c6        983
    x[34]     c1        542
    x[34]     OBJ       -684
    x[35]     c2        138
    x[35]     c3        476
    x[35]     c4        190
    x[35]     c5        344
    x[35]     c6        288
    x[35]     c1        767
    x[35]     OBJ       239
    x[36]     c2        92
    x[36]     c3        656
    x[36]     c4        491
    x[36]     c5        298
    x[36]     c6        116
    x[36]     c1        964
    x[36]     OBJ       298
    x[37]     c2        927
    x[37]     c3        716
    x[37]     c4        669
    x[37]     c5        612
    x[37]     c6        125
    x[37]     c1        896
    x[37]     OBJ       172
    x[38]     c2        489
    x[38]     c3        871
    x[38]     c4        824
    x[38]     c5        710
    x[38]     c6        572
    x[38]     c1        350
    x[38]     OBJ       -432
    x[39]     c2        938
    x[39]     c3        631
    x[39]     c4        99
    x[39]     c5        399
    x[39]     c6        63
    x[39]     c1        178
    x[39]     OBJ       -312
    x[40]     c2        781
    x[40]     c3        530
    x[40]     c4        549
    x[40]     c5        74
    x[40]     c6        804
    x[40]     c1        557
    x[40]     OBJ       -218
    x[41]     c2        730
    x[41]     c3        326
    x[41]     c4        381
    x[41]     c5        728
    x[41]     c6        24
    x[41]     c1        975
    x[41]     OBJ       -105
    x[42]     c2        104
    x[42]     c3        660
    x[42]     c4        252
    x[42]     c5        711
    x[42]     c6        215
    x[42]     c1        70
    x[42]     OBJ       -725
    x[43]     c2        618
    x[43]     c3        326
    x[43]     c4        293
    x[43]     c5        714
    x[43]     c6        158
    x[43]     c1        226
    x[43]     OBJ       -445
    x[44]     c2        917
    x[44]     c3        543
    x[44]     c4        747
    x[44]     c5        352
    x[44]     c6        928
    x[44]     c1        356
    x[44]     OBJ       -577
    x[45]     c2        7
    x[45]     c3        252
    x[45]     c4        240
    x[45]     c5        842
    x[45]     c6        359
    x[45]     c1        404
    x[45]     OBJ       -346
    x[46]     c2        405
    x[46]     c3        497
    x[46]     c4        835
    x[46]     c5        403
    x[46]     c6        658
    x[46]     c1        79
    x[46]     OBJ       -791
    x[47]     c2        81
    x[47]     c3        619
    x[47]     c4        515
    x[47]     c5        643
    x[47]     c6        381
    x[47]     c1        833
    x[47]     OBJ       -88
    x[48]     c2        560
    x[48]     c3        886
    x[48]     c4        435
    x[48]     c5        798
    x[48]     c6        440
    x[48]     c1        616
    x[48]     OBJ       -139
    x[49]     c2        617
    x[49]     c3        389
    x[49]     c4        735
    x[49]     c5        955
    x[49]     c6        741
    x[49]     c1        575
    x[49]     OBJ       -368
    x[50]     c2        214
    x[50]     c3        177
    x[50]     c4        45
    x[50]     c5        654
    x[50]     c6        445
    x[50]     c1        987
    x[50]     OBJ       595
    x[51]     c2        696
    x[51]     c3        747
    x[51]     c4        461
    x[51]     c5        510
    x[51]     c6        626
    x[51]     c1        340
    x[51]     OBJ       -558
    x[52]     c2        4
    x[52]     c3        291
    x[52]     c4        964
    x[52]     c5        111
    x[52]     c6        213
    x[52]     c1        794
    x[52]     OBJ       251
    x[53]     c2        455
    x[53]     c3        927
    x[53]     c4        465
    x[53]     c5        710
    x[53]     c6        464
    x[53]     c1        321
    x[53]     OBJ       -359
    x[54]     c2        234
    x[54]     c3        436
    x[54]     c4        978
    x[54]     c5        482
    x[54]     c6        571
    x[54]     c1        337
    x[54]     OBJ       -593
    x[55]     c2        209
    x[55]     c3        597
    x[55]     c4        884
    x[55]     c5        930
    x[55]     c6        848
    x[55]     c1        580
    x[55]     OBJ       -172
    x[56]     c2        465
    x[56]     c3        347
    x[56]     c4        553
    x[56]     c5        906
    x[56]     c6        371
    x[56]     c1        920
    x[56]     OBJ       384
    x[57]     c2        348
    x[57]     c3        907
    x[57]     c4        616
    x[57]     c5        621
    x[57]     c6        209
    x[57]     c1        425
    x[57]     OBJ       -337
    x[58]     c2        520
    x[58]     c3        173
    x[58]     c4        227
    x[58]     c5        155
    x[58]     c6        693
    x[58]     c1        170
    x[58]     OBJ       -454
    x[59]     c2        474
    x[59]     c3        567
    x[59]     c4        470
    x[59]     c5        597
    x[59]     c6        353
    x[59]     c1        955
    x[59]     OBJ       -157
    x[60]     c2        931
    x[60]     c3        543
    x[60]     c4        526
    x[60]     c5        139
    x[60]     c6        440
    x[60]     c1        581
    x[60]     OBJ       -161
    x[61]     c2        383
    x[61]     c3        333
    x[61]     c4        644
    x[61]     c5        587
    x[61]     c6        550
    x[61]     c1        739
    x[61]     OBJ       -78
    x[62]     c2        585
    x[62]     c3        959
    x[62]     c4        250
    x[62]     c5        239
    x[62]     c6        953
    x[62]     c1        622
    x[62]     OBJ       -392
    x[63]     c2        54
    x[63]     c3        140
    x[63]     c4        749
    x[63]     c5        218
    x[63]     c6        810
    x[63]     c1        473
    x[63]     OBJ       -95
    x[64]     c2        232
    x[64]     c3        576
    x[64]     c4        460
    x[64]     c5        852
    x[64]     c6        14
    x[64]     c1        789
    x[64]     OBJ       225
    x[65]     c2        827
    x[65]     c3        644
    x[65]     c4        836
    x[65]     c5        704
    x[65]     c6        114
    x[65]     c1        946
    x[65]     OBJ       -87
    x[66]     c2        69
    x[66]     c3        286
    x[66]     c4        122
    x[66]     c5        561
    x[66]     c6        192
    x[66]     c1        499
    x[66]     OBJ       -94
    x[67]     c2        511
    x[67]     c3        104
    x[67]     c4        524
    x[67]     c5        257
    x[67]     c6        603
    x[67]     c1        666
    x[67]     OBJ       -151
    x[68]     c2        945
    x[68]     c3        63
    x[68]     c4        852
    x[68]     c5        878
    x[68]     c6        391
    x[68]     c1        546
    x[68]     OBJ       -183
    x[69]     c2        588
    x[69]     c3        677
    x[69]     c4        648
    x[69]     c5        70
    x[69]     c6        399
    x[69]     c1        630
    x[69]     OBJ       -48
    x[70]     c2        961
    x[70]     c3        950
    x[70]     c4        926
    x[70]     c5        802
    x[70]     c6        18
    x[70]     c1        997
    x[70]     OBJ       -24
    x[71]     c2        53
    x[71]     c3        351
    x[71]     c4        889
    x[71]     c5        10
    x[71]     c6        531
    x[71]     c1        462
    x[71]     OBJ       -256
    x[72]     c2        443
    x[72]     c3        730
    x[72]     c4        302
    x[72]     c5        386
    x[72]     c6        565
    x[72]     c1        750
    x[72]     OBJ       -197
    x[73]     c2        534
    x[73]     c3        936
    x[73]     c4        167
    x[73]     c5        462
    x[73]     c6        145
    x[73]     c1        841
    x[73]     OBJ       201
    x[74]     c2        140
    x[74]     c3        175
    x[74]     c4        587
    x[74]     c5        382
    x[74]     c6        226
    x[74]     c1        795
    x[74]     OBJ       -1
    x[75]     c2        60
    x[75]     c3        513
    x[75]     c4        321
    x[75]     c5        354
    x[75]     c6        446
    x[75]     c1        2
    x[75]     OBJ       -391
    x[76]     c2        692
    x[76]     c3        5
    x[76]     c4        735
    x[76]     c5        733
    x[76]     c6        863
    x[76]     c1        522
    x[76]     OBJ       -215
    x[77]     c2        670
    x[77]     c3        87
    x[77]     c4        553
    x[77]     c5        417
    x[77]     c6        994
    x[77]     c1        778
    x[77]     OBJ       -139
    x[78]     c2        236
    x[78]     c3        219
    x[78]     c4        877
    x[78]     c5        200
    x[78]     c6        233
    x[78]     c1        42
    x[78]     OBJ       -632
    x[79]     c2        762
    x[79]     c3        679
    x[79]     c4        182
    x[79]     c5        785
    x[79]     c6        710
    x[79]     c1        714
    x[79]     OBJ       -229
    x[80]     c2        940
    x[80]     c3        86
    x[80]     c4        139
    x[80]     c5        263
    x[80]     c6        851
    x[80]     c1        645
    x[80]     OBJ       -183
    x[81]     c2        677
    x[81]     c3        474
    x[81]     c4        308
    x[81]     c5        592
    x[81]     c6        109
    x[81]     c1        855
    x[81]     OBJ       381
    x[82]     c2        483
    x[82]     c3        901
    x[82]     c4        82
    x[82]     c5        573
    x[82]     c6        708
    x[82]     c1        396
    x[82]     OBJ       -275
    x[83]     c2        668
    x[83]     c3        641
    x[83]     c4        697
    x[83]     c5        321
    x[83]     c6        930
    x[83]     c1        768
    x[83]     OBJ       -295
    x[84]     c2        777
    x[84]     c3        231
    x[84]     c4        800
    x[84]     c5        682
    x[84]     c6        38
    x[84]     c1        392
    x[84]     OBJ       -201
    x[85]     c2        575
    x[85]     c3        732
    x[85]     c4        640
    x[85]     c5        186
    x[85]     c6        355
    x[85]     c1        141
    x[85]     OBJ       -363
    x[86]     c2        120
    x[86]     c3        954
    x[86]     c4        536
    x[86]     c5        640
    x[86]     c6        501
    x[86]     c1        544
    x[86]     OBJ       -220
    x[87]     c2        947
    x[87]     c3        199
    x[87]     c4        520
    x[87]     c5        246
    x[87]     c6        617
    x[87]     c1        847
    x[87]     OBJ       164
    x[88]     c2        296
    x[88]     c3        57
    x[88]     c4        942
    x[88]     c5        611
    x[88]     c6        140
    x[88]     c1        263
    x[88]     OBJ       -603
    x[89]     c2        304
    x[89]     c3        227
    x[89]     c4        833
    x[89]     c5        353
    x[89]     c6        695
    x[89]     c1        325
    x[89]     OBJ       -245
    x[90]     c2        543
    x[90]     c3        836
    x[90]     c4        176
    x[90]     c5        419
    x[90]     c6        217
    x[90]     c1        227
    x[90]     OBJ       -605
    x[91]     c2        210
    x[91]     c3        324
    x[91]     c4        502
    x[91]     c5        526
    x[91]     c6        773
    x[91]     c1        765
    x[91]     OBJ       -120
    x[92]     c2        772
    x[92]     c3        149
    x[92]     c4        496
    x[92]     c5        867
    x[92]     c6        368
    x[92]     c1        128
    x[92]     OBJ       -413
    x[93]     c2        761
    x[93]     c3        538
    x[93]     c4        671
    x[93]     c5        475
    x[93]     c6        794
    x[93]     c1        10
    x[93]     OBJ       -685
    x[94]     c2        448
    x[94]     c3        378
    x[94]     c4        335
    x[94]     c5        616
    x[94]     c6        718
    x[94]     c1        973
    x[94]     OBJ       -119
    x[95]     c2        804
    x[95]     c3        321
    x[95]     c4        85
    x[95]     c5        399
    x[95]     c6        887
    x[95]     c1        162
    x[95]     OBJ       -713
    x[96]     c2        432
    x[96]     c3        250
    x[96]     c4        99
    x[96]     c5        586
    x[96]     c6        642
    x[96]     c1        743
    x[96]     OBJ       320
    x[97]     c2        29
    x[97]     c3        30
    x[97]     c4        583
    x[97]     c5        457
    x[97]     c6        701
    x[97]     c1        208
    x[97]     OBJ       -368
    x[98]     c2        424
    x[98]     c3        849
    x[98]     c4        496
    x[98]     c5        787
    x[98]     c6        619
    x[98]     c1        223
    x[98]     OBJ       -827
    x[99]     c2        71
    x[99]     c3        207
    x[99]     c4        908
    x[99]     c5        139
    x[99]     c6        502
    x[99]     c1        981
    x[99]     OBJ       433
    x[100]    c2        892
    x[100]    c3        774
    x[100]    c4        57
    x[100]    c5        704
    x[100]    c6        524
    x[100]    c1        143
    x[100]    OBJ       -726
RHS
    rhs       c2        36577
    rhs       c3        36182
    rhs       c4        38612
    rhs       c5        37338
    rhs       c6        36798
    rhs       c1        3948
RANGES
BOUNDS
 LO bounds    ss[1]     0
 PL bounds    ss[1]
 MI bounds    s[1]
 UP bounds    s[1]      0
 MI bounds    s[2]
 UP bounds    s[2]      0
 MI bounds    s[3]
 UP bounds    s[3]      0
 MI bounds    s[4]
 UP bounds    s[4]      0
 MI bounds    s[5]
 UP bounds    s[5]      0
 BV bounds    x[1]
 BV bounds    x[2]
 BV bounds    x[3]
 BV bounds    x[4]
 BV bounds    x[5]
 BV bounds    x[6]
 BV bounds    x[7]
 BV bounds    x[8]
 BV bounds    x[9]
 BV bounds    x[10]
 BV bounds    x[11]
 BV bounds    x[12]
 BV bounds    x[13]
 BV bounds    x[14]
 BV bounds    x[15]
 BV bounds    x[16]
 BV bounds    x[17]
 BV bounds    x[18]
 BV bounds    x[19]
 BV bounds    x[20]
 BV bounds    x[21]
 BV bounds    x[22]
 BV bounds    x[23]
 BV bounds    x[24]
 BV bounds    x[25]
 BV bounds    x[26]
 BV bounds    x[27]
 BV bounds    x[28]
 BV bounds    x[29]
 BV bounds    x[30]
 BV bounds    x[31]
 BV bounds    x[32]
 BV bounds    x[33]
 BV bounds    x[34]
 BV bounds    x[35]
 BV bounds    x[36]
 BV bounds    x[37]
 BV bounds    x[38]
 BV bounds    x[39]
 BV bounds    x[40]
 BV bounds    x[41]
 BV bounds    x[42]
 BV bounds    x[43]
 BV bounds    x[44]
 BV bounds    x[45]
 BV bounds    x[46]
 BV bounds    x[47]
 BV bounds    x[48]
 BV bounds    x[49]
 BV bounds    x[50]
 BV bounds    x[51]
 BV bounds    x[52]
 BV bounds    x[53]
 BV bounds    x[54]
 BV bounds    x[55]
 BV bounds    x[56]
 BV bounds    x[57]
 BV bounds    x[58]
 BV bounds    x[59]
 BV bounds    x[60]
 BV bounds    x[61]
 BV bounds    x[62]
 BV bounds    x[63]
 BV bounds    x[64]
 BV bounds    x[65]
 BV bounds    x[66]
 BV bounds    x[67]
 BV bounds    x[68]
 BV bounds    x[69]
 BV bounds    x[70]
 BV bounds    x[71]
 BV bounds    x[72]
 BV bounds    x[73]
 BV bounds    x[74]
 BV bounds    x[75]
 BV bounds    x[76]
 BV bounds    x[77]
 BV bounds    x[78]
 BV bounds    x[79]
 BV bounds    x[80]
 BV bounds    x[81]
 BV bounds    x[82]
 BV bounds    x[83]
 BV bounds    x[84]
 BV bounds    x[85]
 BV bounds    x[86]
 BV bounds    x[87]
 BV bounds    x[88]
 BV bounds    x[89]
 BV bounds    x[90]
 BV bounds    x[91]
 BV bounds    x[92]
 BV bounds    x[93]
 BV bounds    x[94]
 BV bounds    x[95]
 BV bounds    x[96]
 BV bounds    x[97]
 BV bounds    x[98]
 BV bounds    x[99]
 BV bounds    x[100]
ENDATA
